instances/knapsack/discrete/knapsack_140_19.lp
\ Model knapsack_140_19
\ LP format - for model browsing. Use MPS format to capture full model detail.
\ Signature: 0x9977cb8fbdb63468
Minimize
  - 30 x[0] - 91 x[1] - 84 x[2] - 44 x[3] - 98 x[4] - 5 x[5] - 98 x[6]
   - 84 x[7] - 23 x[8] - 15 x[9] - 47 x[10] - 11 x[11] - 7 x[12] - 70 x[13]
   - 87 x[14] - 36 x[15] - 50 x[16] - 18 x[17] - 55 x[18] - 54 x[19]
   - 86 x[20] - 27 x[21] - 8 x[22] - 32 x[23] - 97 x[24] - 75 x[25]
   - 44 x[26] - 20 x[27] - 22 x[28] - 41 x[29] - 57 x[30] - 64 x[31]
   - 60 x[32] - 19 x[33] - 88 x[34] - 65 x[35] - 33 x[36] - 35 x[37]
   - 27 x[38] - 72 x[39] - 12 x[40] - 42 x[41] - 30 x[42] - 31 x[43]
   - 91 x[44] - 91 x[45] - 65 x[46] - 29 x[47] - 89 x[48] - 34 x[49]
   - 7 x[50] - 47 x[51] - 59 x[52] - 5 x[53] - 92 x[54] - 26 x[55]
   - 99 x[56] - 88 x[57] - 80 x[58] - 47 x[59] - 52 x[60] - 94 x[61]
   - 78 x[62] - 62 x[63] - 19 x[64] - 81 x[65] - 69 x[66] - 42 x[67]
   - 57 x[68] - 30 x[69] - 29 x[70] - 83 x[71] - 57 x[72] - 66 x[73]
   - 75 x[74] - 22 x[75] - 78 x[76] - 5 x[77] - 92 x[78] - 76 x[79]
   - 95 x[80] - 58 x[81] - 22 x[82] - 78 x[83] - 57 x[84] - 5 x[85]
   - 66 x[86] - 71 x[87] - 16 x[88] - 51 x[89] - 74 x[90] - 30 x[91]
   - 82 x[92] - 65 x[93] - 60 x[94] - 71 x[95] - 93 x[96] - 20 x[97]
   - 41 x[98] - 33 x[99] - 65 x[100] - 6 x[101] - 27 x[102] - 66 x[103]
   - 59 x[104] - 23 x[105] - 94 x[106] - 77 x[107] - 26 x[108] - 17 x[109]
   - 54 x[110] - 70 x[111] - 42 x[112] - 100 x[113] - 22 x[114] - 57 x[115]
   - 43 x[116] - 61 x[117] - 14 x[118] - 43 x[119] - 58 x[120] - 35 x[121]
   - 86 x[122] - 75 x[123] - 32 x[124] - 65 x[125] - 21 x[126] - 62 x[127]
   - 16 x[128] - 13 x[129] - 87 x[130] - 99 x[131] - 24 x[132] - 67 x[133]
   - 58 x[134] - 24 x[135] - 93 x[136] - 78 x[137] - 27 x[138] - 98 x[139]
Subject To
 primal_upper: 52 x[0] + 100 x[1] + 94 x[2] + 87 x[3] + 80 x[4] + 14 x[5]
   + 21 x[6] + 8 x[7] + 93 x[8] + 78 x[9] + 12 x[10] + 3 x[11] + 100 x[12]
   + 88 x[13] + 73 x[14] + 9 x[15] + 61 x[16] + 44 x[17] + 89 x[18]
   + 78 x[19] + 45 x[20] + 68 x[21] + 12 x[22] + 59 x[23] + 77 x[24]
   + 88 x[25] + 66 x[26] + 64 x[27] + 58 x[28] + 3 x[29] + 10 x[30]
   + 28 x[31] + 8 x[32] + 25 x[33] + 56 x[34] + 53 x[35] + 8 x[36]
   + 45 x[37] + 60 x[38] + 91 x[39] + 11 x[40] + 10 x[41] + 70 x[42]
   + 86 x[43] + 83 x[44] + 35 x[45] + 38 x[46] + 90 x[47] + 87 x[48]
   + 24 x[49] + 79 x[50] + 16 x[51] + 85 x[52] + 24 x[53] + 17 x[54]
   + 80 x[55] + 65 x[56] + 95 x[57] + 16 x[58] + 70 x[59] + 21 x[60]
   + 7 x[61] + 76 x[62] + 27 x[63] + 16 x[64] + 72 x[65] + 17 x[66]
   + 31 x[67] + 40 x[68] + 90 x[69] + 6 x[70] + 86 x[71] + 86 x[72]
   + 19 x[73] + 20 x[74] + 33 x[75] + 71 x[76] + 67 x[77] + 45 x[78]
   + 91 x[79] + 38 x[80] + 22 x[81] + 67 x[82] + 26 x[83] + 34 x[84]
   + 50 x[85] + 32 x[86] + 16 x[87] + 2 x[88] + 87 x[89] + 29 x[90]
   + 9 x[91] + 93 x[92] + 72 x[93] + 84 x[94] + 53 x[95] + 17 x[96]
   + 61 x[97] + 44 x[98] + 96 x[99] + 61 x[100] + 48 x[101] + 10 x[102]
   + 100 x[103] + 49 x[104] + 50 x[105] + 51 x[106] + 51 x[107] + 71 x[108]
   + 69 x[109] + 63 x[110] + 87 x[111] + 5 x[112] + 61 x[113] + 21 x[114]
   + 15 x[115] + 95 x[116] + 41 x[117] + 33 x[118] + 9 x[119] + 96 x[120]
   + 13 x[121] + 56 x[122] + 23 x[123] + 13 x[124] + 59 x[125] + 60 x[126]
   + 96 x[127] + 63 x[128] + 87 x[129] + 58 x[130] + 17 x[131] + 79 x[132]
   + 100 x[133] + 5 x[134] + 6 x[135] + 73 x[136] + 51 x[137] + 98 x[138]
   + 36 x[139] + 5.2 r[0] + 10 r[1] + 9.4 r[2] + 8.7 r[3] + 8 r[4]
   + 1.4 r[5] + 2.1 r[6] + 0.8 r[7] + 9.3 r[8] + 7.8 r[9] + 1.2 r[10]
   + 0.3 r[11] + 10 r[12] + 8.8 r[13] + 7.3 r[14] + 0.9 r[15] + 6.1 r[16]
   + 4.4 r[17] + 8.9 r[18] + 7.8 r[19] + 4.5 r[20] + 6.8 r[21] + 1.2 r[22]
   + 5.9 r[23] + 7.7 r[24] + 8.8 r[25] + 6.6 r[26] + 6.4 r[27] + 5.8 r[28]
   + 0.3 r[29] + r[30] + 2.8 r[31] + 0.8 r[32] + 2.5 r[33] + 5.6 r[34]
   + 5.3 r[35] + 0.8 r[36] + 4.5 r[37] + 6 r[38] + 9.1 r[39] + 1.1 r[40]
   + r[41] + 7 r[42] + 8.6 r[43] + 8.3 r[44] + 3.5 r[45] + 3.8 r[46]
   + 9 r[47] + 8.7 r[48] + 2.4 r[49] + 7.9 r[50] + 1.6 r[51] + 8.5 r[52]
   + 2.4 r[53] + 1.7 r[54] + 8 r[55] + 6.5 r[56] + 9.5 r[57] + 1.6 r[58]
   + 7 r[59] + 2.1 r[60] + 0.7 r[61] + 7.6 r[62] + 2.7 r[63] + 1.6 r[64]
   + 7.2 r[65] + 1.7 r[66] + 3.1 r[67] + 4 r[68] + 9 r[69] + 0.6 r[70]
   + 8.6 r[71] + 8.6 r[72] + 1.9 r[73] + 2 r[74] + 3.3 r[75] + 7.1 r[76]
   + 6.7 r[77] + 4.5 r[78] + 9.1 r[79] + 3.8 r[80] + 2.2 r[81] + 6.7 r[82]
   + 2.6 r[83] + 3.4 r[84] + 5 r[85] + 3.2 r[86] + 1.6 r[87] + 0.2 r[88]
   + 8.7 r[89] + 2.9 r[90] + 0.9 r[91] + 9.3 r[92] + 7.2 r[93] + 8.4 r[94]
   + 5.3 r[95] + 1.7 r[96] + 6.1 r[97] + 4.4 r[98] + 9.6 r[99] + 6.1 r[100]
   + 4.8 r[101] + r[102] + 10 r[103] + 4.9 r[104] + 5 r[105] + 5.1 r[106]
   + 5.1 r[107] + 7.1 r[108] + 6.9 r[109] + 6.3 r[110] + 8.7 r[111]
   + 0.5 r[112] + 6.1 r[113] + 2.1 r[114] + 1.5 r[115] + 9.5 r[116]
   + 4.1 r[117] + 3.3 r[118] + 0.9 r[119] + 9.6 r[120] + 1.3 r[121]
   + 5.6 r[122] + 2.3 r[123] + 1.3 r[124] + 5.9 r[125] + 6 r[126]
   + 9.6 r[127] + 6.3 r[128] + 8.7 r[129] + 5.8 r[130] + 1.7 r[131]
   + 7.9 r[132] + 10 r[133] + 0.5 r[134] + 0.6 r[135] + 7.3 r[136]
   + 5.1 r[137] + 9.8 r[138] + 3.6 r[139] <= 678
 primal_lower: 1.174011467374539 x[0] + 2.215119699997746 x[1]
   + 0.3156009752974758 x[2] + 1.341236894707485 x[3]
   + 1.503917652670808 x[4] + 2.490472024968676 x[5]
   + 4.79968169959471 x[6] + 0.4534649484894083 x[7]
   + 3.15205701266889 x[8] + 0.8651299612037902 x[9]
   + 4.787536652299294 x[10] + 0.1360460793165754 x[11]
   + 2.911669111051266 x[12] + 4.394307972359399 x[13]
   + 4.756221484853163 x[14] + 3.854574725731397 x[15]
   + 4.231088176620785 x[16] + 2.175279823489895 x[17]
   + 0.3268881306583969 x[18] + 3.321505088335801 x[19]
   + 4.304615955853881 x[20] + 4.97774263944395 x[21]
   + 4.608887800871881 x[22] + 3.040854692940848 x[23]
   + 1.056314323782642 x[24] + 2.72753154551576 x[25]
   + 4.440413665159522 x[26] + 4.532503709332785 x[27]
   + 3.697835327175848 x[28] + 3.850858563431978 x[29]
   + 1.588424240479026 x[30] + 4.167399522561795 x[31]
   + 4.477220439500624 x[32] + 1.356701998510726 x[33]
   + 3.852008827698503 x[34] + 4.97072370328585 x[35]
   + 3.73106384721783 x[36] + 1.62147785247554 x[37]
   + 2.255897587883367 x[38] + 3.463941208965182 x[39]
   + 0.423236849814134 x[40] + 4.46735296849295 x[41]
   + 1.880100580470812 x[42] + 2.737893426201195 x[43]
   + 3.720378405507671 x[44] + 3.817482454960915 x[45]
   + 2.934133815580428 x[46] + 4.558433121767394 x[47]
   + 3.251505004305357 x[48] + 4.443420730034774 x[49]
   + 1.122306895240128 x[50] + 1.257549795880469 x[51]
   + 1.047535992358383 x[52] + 2.474109565078489 x[53]
   + 0.0234078234476823 x[54] + 0.5401194165939245 x[55]
   + 2.860020838289627 x[56] + 0.00703314134739109 x[57]
   + 3.375910253964976 x[58] + 3.191056896500982 x[59]
   + 3.512430115414594 x[60] + 3.722596622061679 x[61]
   + 1.424094436817128 x[62] + 2.062960834177866 x[63]
   + 1.474693593613912 x[64] + 3.704927492763241 x[65]
   + 2.061116054077966 x[66] + 1.559371492179044 x[67]
   + 0.3213798103682851 x[68] + 4.152661010003461 x[69]
   + 2.349477373873968 x[70] + 0.2494380946989429 x[71]
   + 0.4975595432022724 x[72] + 4.085179386157155 x[73]
   + 2.631152715896191 x[74] + 4.276611999892875 x[75]
   + 0.00520325328674831 x[76] + 4.770283292313602 x[77]
   + 0.6017240852238031 x[78] + 3.77596205372086 x[79]
   + 3.505292134982144 x[80] + 4.228116816195685 x[81]
   + 2.335926890186112 x[82] + 1.448869258083328 x[83]
   + 4.205606862713546 x[84] + 4.954306124997125 x[85]
   + 5.002614076159409 x[86] + 3.694196555799655 x[87]
   + 2.518270888561472 x[88] + 0.8440390938420322 x[89]
   + 0.4968003917137616 x[90] + 4.744267245278723 x[91]
   + 3.618187231512848 x[92] + 3.34263859867506 x[93]
   + 0.455790978868098 x[94] + 1.909524338379627 x[95]
   + 3.339607283420404 x[96] + 2.783262524008586 x[97]
   + 1.85335546252515 x[98] + 1.592867819285925 x[99]
   + 3.88696779911063 x[100] + 0.7345184851460085 x[101]
   + 4.322557553737345 x[102] + 1.148434250386376 x[103]
   + 1.618556205788433 x[104] + 3.593601411979529 x[105]
   + 1.595673469549215 x[106] + 0.2058946637548614 x[107]
   + 4.500641692666036 x[108] + 0.4511080105323096 x[109]
   + 4.766982256039144 x[110] + 2.150709009270198 x[111]
   + 4.285175165128977 x[112] + 2.71600363289339 x[113]
   + 4.439303938377803 x[114] + 2.437863874488521 x[115]
   + 2.379005487747652 x[116] + 2.61074041626934 x[117]
   + 2.412680048518219 x[118] + 3.5863020402127 x[119]
   + 1.200378869140942 x[120] + 1.566707711669239 x[121]
   + 3.777949423819132 x[122] + 0.8930061611697311 x[123]
   + 4.422656917613916 x[124] + 4.676427965673077 x[125]
   + 4.733517407527976 x[126] + 1.115724840564789 x[127]
   + 4.9194257713883 x[128] + 3.375786166659233 x[129]
   + 0.9464077713614338 x[130] + 3.768934422441775 x[131]
   + 1.216229168285146 x[132] + 3.153661316391223 x[133]
   + 3.04799011651037 x[134] + 0.1047704670066247 x[135]
   + 3.52389101900411 x[136] + 3.674143899679092 x[137]
   + 1.87408500490758 x[138] + 2.98273485851281 x[139] + 84 u[0] + 16 u[1]
   + 66 u[2] + 83 u[3] + 52 u[4] + 46 u[5] + 89 u[6] + 68 u[7] + 9 u[8]
   + 94 u[9] + 88 u[10] + 79 u[11] + 68 u[12] + 84 u[13] + u[14] + 97 u[15]
   + 25 u[16] + 20 u[17] + 17 u[18] + 78 u[19] + 73 u[20] + 24 u[21]
   + 20 u[22] + 31 u[23] + 9 u[24] + 20 u[25] + 30 u[26] + 60 u[27]
   + 54 u[28] + 95 u[29] + 18 u[30] + 88 u[31] + 100 u[32] + 77 u[33]
   + 64 u[34] + 37 u[35] + 60 u[36] + 65 u[37] + 24 u[38] + 23 u[39]
   + 31 u[40] + 74 u[41] + 10 u[42] + 34 u[43] + 43 u[44] + 79 u[45]
   + 10 u[46] + 42 u[47] + 59 u[48] + 88 u[49] + 43 u[50] + 4 u[51]
   + 17 u[52] + 72 u[53] + 65 u[54] + 88 u[55] + 69 u[56] + 15 u[57]
   + 100 u[58] + 38 u[59] + u[60] + 51 u[61] + 56 u[62] + 35 u[63]
   + 16 u[64] + 68 u[65] + 85 u[66] + 59 u[67] + 44 u[68] + 58 u[69]
   + 98 u[70] + 38 u[71] + 22 u[72] + 11 u[73] + 72 u[74] + 9 u[75]
   + 59 u[76] + 91 u[77] + 77 u[78] + 47 u[79] + 74 u[80] + 2 u[81]
   + 19 u[82] + 2 u[83] + 74 u[84] + 62 u[85] + 8 u[86] + 48 u[87]
   + 62 u[88] + 59 u[89] + 77 u[90] + 41 u[91] + 81 u[92] + 24 u[93]
   + 16 u[94] + 69 u[95] + 73 u[96] + 53 u[97] + 36 u[98] + 72 u[99]
   + 73 u[100] + 64 u[101] + 86 u[102] + 24 u[103] + 5 u[104] + 62 u[105]
   + 35 u[106] + 51 u[107] + 23 u[108] + 17 u[109] + 55 u[110] + 67 u[111]
   + 85 u[112] + 49 u[113] + 17 u[114] + 99 u[115] + 7 u[116] + 77 u[117]
   + 69 u[118] + 81 u[119] + 60 u[120] + 89 u[121] + 60 u[122] + 83 u[123]
   + 89 u[124] + 79 u[125] + 40 u[126] + 4 u[127] + 55 u[128] + 39 u[129]
   + 46 u[130] + 97 u[131] + 43 u[132] + 92 u[133] + 57 u[134] + 62 u[135]
   + 17 u[136] + 99 u[137] + 94 u[138] + 52 u[139] <= 29666
 mccormick1[0]: - u[0] + r[0] <= 0
 mccormick1[1]: - u[1] + r[1] <= 0
 mccormick1[2]: - u[2] + r[2] <= 0
 mccormick1[3]: - u[3] + r[3] <= 0
 mccormick1[4]: - u[4] + r[4] <= 0
 mccormick1[5]: - u[5] + r[5] <= 0
 mccormick1[6]: - u[6] + r[6] <= 0
 mccormick1[7]: - u[7] + r[7] <= 0
 mccormick1[8]: - u[8] + r[8] <= 0
 mccormick1[9]: - u[9] + r[9] <= 0
 mccormick1[10]: - u[10] + r[10] <= 0
 mccormick1[11]: - u[11] + r[11] <= 0
 mccormick1[12]: - u[12] + r[12] <= 0
 mccormick1[13]: - u[13] + r[13] <= 0
 mccormick1[14]: - u[14] + r[14] <= 0
 mccormick1[15]: - u[15] + r[15] <= 0
 mccormick1[16]: - u[16] + r[16] <= 0
 mccormick1[17]: - u[17] + r[17] <= 0
 mccormick1[18]: - u[18] + r[18] <= 0
 mccormick1[19]: - u[19] + r[19] <= 0
 mccormick1[20]: - u[20] + r[20] <= 0
 mccormick1[21]: - u[21] + r[21] <= 0
 mccormick1[22]: - u[22] + r[22] <= 0
 mccormick1[23]: - u[23] + r[23] <= 0
 mccormick1[24]: - u[24] + r[24] <= 0
 mccormick1[25]: - u[25] + r[25] <= 0
 mccormick1[26]: - u[26] + r[26] <= 0
 mccormick1[27]: - u[27] + r[27] <= 0
 mccormick1[28]: - u[28] + r[28] <= 0
 mccormick1[29]: - u[29] + r[29] <= 0
 mccormick1[30]: - u[30] + r[30] <= 0
 mccormick1[31]: - u[31] + r[31] <= 0
 mccormick1[32]: - u[32] + r[32] <= 0
 mccormick1[33]: - u[33] + r[33] <= 0
 mccormick1[34]: - u[34] + r[34] <= 0
 mccormick1[35]: - u[35] + r[35] <= 0
 mccormick1[36]: - u[36] + r[36] <= 0
 mccormick1[37]: - u[37] + r[37] <= 0
 mccormick1[38]: - u[38] + r[38] <= 0
 mccormick1[39]: - u[39] + r[39] <= 0
 mccormick1[40]: - u[40] + r[40] <= 0
 mccormick1[41]: - u[41] + r[41] <= 0
 mccormick1[42]: - u[42] + r[42] <= 0
 mccormick1[43]: - u[43] + r[43] <= 0
 mccormick1[44]: - u[44] + r[44] <= 0
 mccormick1[45]: - u[45] + r[45] <= 0
 mccormick1[46]: - u[46] + r[46] <= 0
 mccormick1[47]: - u[47] + r[47] <= 0
 mccormick1[48]: - u[48] + r[48] <= 0
 mccormick1[49]: - u[49] + r[49] <= 0
 mccormick1[50]: - u[50] + r[50] <= 0
 mccormick1[51]: - u[51] + r[51] <= 0
 mccormick1[52]: - u[52] + r[52] <= 0
 mccormick1[53]: - u[53] + r[53] <= 0
 mccormick1[54]: - u[54] + r[54] <= 0
 mccormick1[55]: - u[55] + r[55] <= 0
 mccormick1[56]: - u[56] + r[56] <= 0
 mccormick1[57]: - u[57] + r[57] <= 0
 mccormick1[58]: - u[58] + r[58] <= 0
 mccormick1[59]: - u[59] + r[59] <= 0
 mccormick1[60]: - u[60] + r[60] <= 0
 mccormick1[61]: - u[61] + r[61] <= 0
 mccormick1[62]: - u[62] + r[62] <= 0
 mccormick1[63]: - u[63] + r[63] <= 0
 mccormick1[64]: - u[64] + r[64] <= 0
 mccormick1[65]: - u[65] + r[65] <= 0
 mccormick1[66]: - u[66] + r[66] <= 0
 mccormick1[67]: - u[67] + r[67] <= 0
 mccormick1[68]: - u[68] + r[68] <= 0
 mccormick1[69]: - u[69] + r[69] <= 0
 mccormick1[70]: - u[70] + r[70] <= 0
 mccormick1[71]: - u[71] + r[71] <= 0
 mccormick1[72]: - u[72] + r[72] <= 0
 mccormick1[73]: - u[73] + r[73] <= 0
 mccormick1[74]: - u[74] + r[74] <= 0
 mccormick1[75]: - u[75] + r[75] <= 0
 mccormick1[76]: - u[76] + r[76] <= 0
 mccormick1[77]: - u[77] + r[77] <= 0
 mccormick1[78]: - u[78] + r[78] <= 0
 mccormick1[79]: - u[79] + r[79] <= 0
 mccormick1[80]: - u[80] + r[80] <= 0
 mccormick1[81]: - u[81] + r[81] <= 0
 mccormick1[82]: - u[82] + r[82] <= 0
 mccormick1[83]: - u[83] + r[83] <= 0
 mccormick1[84]: - u[84] + r[84] <= 0
 mccormick1[85]: - u[85] + r[85] <= 0
 mccormick1[86]: - u[86] + r[86] <= 0
 mccormick1[87]: - u[87] + r[87] <= 0
 mccormick1[88]: - u[88] + r[88] <= 0
 mccormick1[89]: - u[89] + r[89] <= 0
 mccormick1[90]: - u[90] + r[90] <= 0
 mccormick1[91]: - u[91] + r[91] <= 0
 mccormick1[92]: - u[92] + r[92] <= 0
 mccormick1[93]: - u[93] + r[93] <= 0
 mccormick1[94]: - u[94] + r[94] <= 0
 mccormick1[95]: - u[95] + r[95] <= 0
 mccormick1[96]: - u[96] + r[96] <= 0
 mccormick1[97]: - u[97] + r[97] <= 0
 mccormick1[98]: - u[98] + r[98] <= 0
 mccormick1[99]: - u[99] + r[99] <= 0
 mccormick1[100]: - u[100] + r[100] <= 0
 mccormick1[101]: - u[101] + r[101] <= 0
 mccormick1[102]: - u[102] + r[102] <= 0
 mccormick1[103]: - u[103] + r[103] <= 0
 mccormick1[104]: - u[104] + r[104] <= 0
 mccormick1[105]: - u[105] + r[105] <= 0
 mccormick1[106]: - u[106] + r[106] <= 0
 mccormick1[107]: - u[107] + r[107] <= 0
 mccormick1[108]: - u[108] + r[108] <= 0
 mccormick1[109]: - u[109] + r[109] <= 0
 mccormick1[110]: - u[110] + r[110] <= 0
 mccormick1[111]: - u[111] + r[111] <= 0
 mccormick1[112]: - u[112] + r[112] <= 0
 mccormick1[113]: - u[113] + r[113] <= 0
 mccormick1[114]: - u[114] + r[114] <= 0
 mccormick1[115]: - u[115] + r[115] <= 0
 mccormick1[116]: - u[116] + r[116] <= 0
 mccormick1[117]: - u[117] + r[117] <= 0
 mccormick1[118]: - u[118] + r[118] <= 0
 mccormick1[119]: - u[119] + r[119] <= 0
 mccormick1[120]: - u[120] + r[120] <= 0
 mccormick1[121]: - u[121] + r[121] <= 0
 mccormick1[122]: - u[122] + r[122] <= 0
 mccormick1[123]: - u[123] + r[123] <= 0
 mccormick1[124]: - u[124] + r[124] <= 0
 mccormick1[125]: - u[125] + r[125] <= 0
 mccormick1[126]: - u[126] + r[126] <= 0
 mccormick1[127]: - u[127] + r[127] <= 0
 mccormick1[128]: - u[128] + r[128] <= 0
 mccormick1[129]: - u[129] + r[129] <= 0
 mccormick1[130]: - u[130] + r[130] <= 0
 mccormick1[131]: - u[131] + r[131] <= 0
 mccormick1[132]: - u[132] + r[132] <= 0
 mccormick1[133]: - u[133] + r[133] <= 0
 mccormick1[134]: - u[134] + r[134] <= 0
 mccormick1[135]: - u[135] + r[135] <= 0
 mccormick1[136]: - u[136] + r[136] <= 0
 mccormick1[137]: - u[137] + r[137] <= 0
 mccormick1[138]: - u[138] + r[138] <= 0
 mccormick1[139]: - u[139] + r[139] <= 0
 mccormick2[0]: - x[0] + r[0] <= 0
 mccormick2[1]: - x[1] + r[1] <= 0
 mccormick2[2]: - x[2] + r[2] <= 0
 mccormick2[3]: - x[3] + r[3] <= 0
 mccormick2[4]: - x[4] + r[4] <= 0
 mccormick2[5]: - x[5] + r[5] <= 0
 mccormick2[6]: - x[6] + r[6] <= 0
 mccormick2[7]: - x[7] + r[7] <= 0
 mccormick2[8]: - x[8] + r[8] <= 0
 mccormick2[9]: - x[9] + r[9] <= 0
 mccormick2[10]: - x[10] + r[10] <= 0
 mccormick2[11]: - x[11] + r[11] <= 0
 mccormick2[12]: - x[12] + r[12] <= 0
 mccormick2[13]: - x[13] + r[13] <= 0
 mccormick2[14]: - x[14] + r[14] <= 0
 mccormick2[15]: - x[15] + r[15] <= 0
 mccormick2[16]: - x[16] + r[16] <= 0
 mccormick2[17]: - x[17] + r[17] <= 0
 mccormick2[18]: - x[18] + r[18] <= 0
 mccormick2[19]: - x[19] + r[19] <= 0
 mccormick2[20]: - x[20] + r[20] <= 0
 mccormick2[21]: - x[21] + r[21] <= 0
 mccormick2[22]: - x[22] + r[22] <= 0
 mccormick2[23]: - x[23] + r[23] <= 0
 mccormick2[24]: - x[24] + r[24] <= 0
 mccormick2[25]: - x[25] + r[25] <= 0
 mccormick2[26]: - x[26] + r[26] <= 0
 mccormick2[27]: - x[27] + r[27] <= 0
 mccormick2[28]: - x[28] + r[28] <= 0
 mccormick2[29]: - x[29] + r[29] <= 0
 mccormick2[30]: - x[30] + r[30] <= 0
 mccormick2[31]: - x[31] + r[31] <= 0
 mccormick2[32]: - x[32] + r[32] <= 0
 mccormick2[33]: - x[33] + r[33] <= 0
 mccormick2[34]: - x[34] + r[34] <= 0
 mccormick2[35]: - x[35] + r[35] <= 0
 mccormick2[36]: - x[36] + r[36] <= 0
 mccormick2[37]: - x[37] + r[37] <= 0
 mccormick2[38]: - x[38] + r[38] <= 0
 mccormick2[39]: - x[39] + r[39] <= 0
 mccormick2[40]: - x[40] + r[40] <= 0
 mccormick2[41]: - x[41] + r[41] <= 0
 mccormick2[42]: - x[42] + r[42] <= 0
 mccormick2[43]: - x[43] + r[43] <= 0
 mccormick2[44]: - x[44] + r[44] <= 0
 mccormick2[45]: - x[45] + r[45] <= 0
 mccormick2[46]: - x[46] + r[46] <= 0
 mccormick2[47]: - x[47] + r[47] <= 0
 mccormick2[48]: - x[48] + r[48] <= 0
 mccormick2[49]: - x[49] + r[49] <= 0
 mccormick2[50]: - x[50] + r[50] <= 0
 mccormick2[51]: - x[51] + r[51] <= 0
 mccormick2[52]: - x[52] + r[52] <= 0
 mccormick2[53]: - x[53] + r[53] <= 0
 mccormick2[54]: - x[54] + r[54] <= 0
 mccormick2[55]: - x[55] + r[55] <= 0
 mccormick2[56]: - x[56] + r[56] <= 0
 mccormick2[57]: - x[57] + r[57] <= 0
 mccormick2[58]: - x[58] + r[58] <= 0
 mccormick2[59]: - x[59] + r[59] <= 0
 mccormick2[60]: - x[60] + r[60] <= 0
 mccormick2[61]: - x[61] + r[61] <= 0
 mccormick2[62]: - x[62] + r[62] <= 0
 mccormick2[63]: - x[63] + r[63] <= 0
 mccormick2[64]: - x[64] + r[64] <= 0
 mccormick2[65]: - x[65] + r[65] <= 0
 mccormick2[66]: - x[66] + r[66] <= 0
 mccormick2[67]: - x[67] + r[67] <= 0
 mccormick2[68]: - x[68] + r[68] <= 0
 mccormick2[69]: - x[69] + r[69] <= 0
 mccormick2[70]: - x[70] + r[70] <= 0
 mccormick2[71]: - x[71] + r[71] <= 0
 mccormick2[72]: - x[72] + r[72] <= 0
 mccormick2[73]: - x[73] + r[73] <= 0
 mccormick2[74]: - x[74] + r[74] <= 0
 mccormick2[75]: - x[75] + r[75] <= 0
 mccormick2[76]: - x[76] + r[76] <= 0
 mccormick2[77]: - x[77] + r[77] <= 0
 mccormick2[78]: - x[78] + r[78] <= 0
 mccormick2[79]: - x[79] + r[79] <= 0
 mccormick2[80]: - x[80] + r[80] <= 0
 mccormick2[81]: - x[81] + r[81] <= 0
 mccormick2[82]: - x[82] + r[82] <= 0
 mccormick2[83]: - x[83] + r[83] <= 0
 mccormick2[84]: - x[84] + r[84] <= 0
 mccormick2[85]: - x[85] + r[85] <= 0
 mccormick2[86]: - x[86] + r[86] <= 0
 mccormick2[87]: - x[87] + r[87] <= 0
 mccormick2[88]: - x[88] + r[88] <= 0
 mccormick2[89]: - x[89] + r[89] <= 0
 mccormick2[90]: - x[90] + r[90] <= 0
 mccormick2[91]: - x[91] + r[91] <= 0
 mccormick2[92]: - x[92] + r[92] <= 0
 mccormick2[93]: - x[93] + r[93] <= 0
 mccormick2[94]: - x[94] + r[94] <= 0
 mccormick2[95]: - x[95] + r[95] <= 0
 mccormick2[96]: - x[96] + r[96] <= 0
 mccormick2[97]: - x[97] + r[97] <= 0
 mccormick2[98]: - x[98] + r[98] <= 0
 mccormick2[99]: - x[99] + r[99] <= 0
 mccormick2[100]: - x[100] + r[100] <= 0
 mccormick2[101]: - x[101] + r[101] <= 0
 mccormick2[102]: - x[102] + r[102] <= 0
 mccormick2[103]: - x[103] + r[103] <= 0
 mccormick2[104]: - x[104] + r[104] <= 0
 mccormick2[105]: - x[105] + r[105] <= 0
 mccormick2[106]: - x[106] + r[106] <= 0
 mccormick2[107]: - x[107] + r[107] <= 0
 mccormick2[108]: - x[108] + r[108] <= 0
 mccormick2[109]: - x[109] + r[109] <= 0
 mccormick2[110]: - x[110] + r[110] <= 0
 mccormick2[111]: - x[111] + r[111] <= 0
 mccormick2[112]: - x[112] + r[112] <= 0
 mccormick2[113]: - x[113] + r[113] <= 0
 mccormick2[114]: - x[114] + r[114] <= 0
 mccormick2[115]: - x[115] + r[115] <= 0
 mccormick2[116]: - x[116] + r[116] <= 0
 mccormick2[117]: - x[117] + r[117] <= 0
 mccormick2[118]: - x[118] + r[118] <= 0
 mccormick2[119]: - x[119] + r[119] <= 0
 mccormick2[120]: - x[120] + r[120] <= 0
 mccormick2[121]: - x[121] + r[121] <= 0
 mccormick2[122]: - x[122] + r[122] <= 0
 mccormick2[123]: - x[123] + r[123] <= 0
 mccormick2[124]: - x[124] + r[124] <= 0
 mccormick2[125]: - x[125] + r[125] <= 0
 mccormick2[126]: - x[126] + r[126] <= 0
 mccormick2[127]: - x[127] + r[127] <= 0
 mccormick2[128]: - x[128] + r[128] <= 0
 mccormick2[129]: - x[129] + r[129] <= 0
 mccormick2[130]: - x[130] + r[130] <= 0
 mccormick2[131]: - x[131] + r[131] <= 0
 mccormick2[132]: - x[132] + r[132] <= 0
 mccormick2[133]: - x[133] + r[133] <= 0
 mccormick2[134]: - x[134] + r[134] <= 0
 mccormick2[135]: - x[135] + r[135] <= 0
 mccormick2[136]: - x[136] + r[136] <= 0
 mccormick2[137]: - x[137] + r[137] <= 0
 mccormick2[138]: - x[138] + r[138] <= 0
 mccormick2[139]: - x[139] + r[139] <= 0
 mccormick3[0]: x[0] + u[0] - r[0] <= 1
 mccormick3[1]: x[1] + u[1] - r[1] <= 1
 mccormick3[2]: x[2] + u[2] - r[2] <= 1
 mccormick3[3]: x[3] + u[3] - r[3] <= 1
 mccormick3[4]: x[4] + u[4] - r[4] <= 1
 mccormick3[5]: x[5] + u[5] - r[5] <= 1
 mccormick3[6]: x[6] + u[6] - r[6] <= 1
 mccormick3[7]: x[7] + u[7] - r[7] <= 1
 mccormick3[8]: x[8] + u[8] - r[8] <= 1
 mccormick3[9]: x[9] + u[9] - r[9] <= 1
 mccormick3[10]: x[10] + u[10] - r[10] <= 1
 mccormick3[11]: x[11] + u[11] - r[11] <= 1
 mccormick3[12]: x[12] + u[12] - r[12] <= 1
 mccormick3[13]: x[13] + u[13] - r[13] <= 1
 mccormick3[14]: x[14] + u[14] - r[14] <= 1
 mccormick3[15]: x[15] + u[15] - r[15] <= 1
 mccormick3[16]: x[16] + u[16] - r[16] <= 1
 mccormick3[17]: x[17] + u[17] - r[17] <= 1
 mccormick3[18]: x[18] + u[18] - r[18] <= 1
 mccormick3[19]: x[19] + u[19] - r[19] <= 1
 mccormick3[20]: x[20] + u[20] - r[20] <= 1
 mccormick3[21]: x[21] + u[21] - r[21] <= 1
 mccormick3[22]: x[22] + u[22] - r[22] <= 1
 mccormick3[23]: x[23] + u[23] - r[23] <= 1
 mccormick3[24]: x[24] + u[24] - r[24] <= 1
 mccormick3[25]: x[25] + u[25] - r[25] <= 1
 mccormick3[26]: x[26] + u[26] - r[26] <= 1
 mccormick3[27]: x[27] + u[27] - r[27] <= 1
 mccormick3[28]: x[28] + u[28] - r[28] <= 1
 mccormick3[29]: x[29] + u[29] - r[29] <= 1
 mccormick3[30]: x[30] + u[30] - r[30] <= 1
 mccormick3[31]: x[31] + u[31] - r[31] <= 1
 mccormick3[32]: x[32] + u[32] - r[32] <= 1
 mccormick3[33]: x[33] + u[33] - r[33] <= 1
 mccormick3[34]: x[34] + u[34] - r[34] <= 1
 mccormick3[35]: x[35] + u[35] - r[35] <= 1
 mccormick3[36]: x[36] + u[36] - r[36] <= 1
 mccormick3[37]: x[37] + u[37] - r[37] <= 1
 mccormick3[38]: x[38] + u[38] - r[38] <= 1
 mccormick3[39]: x[39] + u[39] - r[39] <= 1
 mccormick3[40]: x[40] + u[40] - r[40] <= 1
 mccormick3[41]: x[41] + u[41] - r[41] <= 1
 mccormick3[42]: x[42] + u[42] - r[42] <= 1
 mccormick3[43]: x[43] + u[43] - r[43] <= 1
 mccormick3[44]: x[44] + u[44] - r[44] <= 1
 mccormick3[45]: x[45] + u[45] - r[45] <= 1
 mccormick3[46]: x[46] + u[46] - r[46] <= 1
 mccormick3[47]: x[47] + u[47] - r[47] <= 1
 mccormick3[48]: x[48] + u[48] - r[48] <= 1
 mccormick3[49]: x[49] + u[49] - r[49] <= 1
 mccormick3[50]: x[50] + u[50] - r[50] <= 1
 mccormick3[51]: x[51] + u[51] - r[51] <= 1
 mccormick3[52]: x[52] + u[52] - r[52] <= 1
 mccormick3[53]: x[53] + u[53] - r[53] <= 1
 mccormick3[54]: x[54] + u[54] - r[54] <= 1
 mccormick3[55]: x[55] + u[55] - r[55] <= 1
 mccormick3[56]: x[56] + u[56] - r[56] <= 1
 mccormick3[57]: x[57] + u[57] - r[57] <= 1
 mccormick3[58]: x[58] + u[58] - r[58] <= 1
 mccormick3[59]: x[59] + u[59] - r[59] <= 1
 mccormick3[60]: x[60] + u[60] - r[60] <= 1
 mccormick3[61]: x[61] + u[61] - r[61] <= 1
 mccormick3[62]: x[62] + u[62] - r[62] <= 1
 mccormick3[63]: x[63] + u[63] - r[63] <= 1
 mccormick3[64]: x[64] + u[64] - r[64] <= 1
 mccormick3[65]: x[65] + u[65] - r[65] <= 1
 mccormick3[66]: x[66] + u[66] - r[66] <= 1
 mccormick3[67]: x[67] + u[67] - r[67] <= 1
 mccormick3[68]: x[68] + u[68] - r[68] <= 1
 mccormick3[69]: x[69] + u[69] - r[69] <= 1
 mccormick3[70]: x[70] + u[70] - r[70] <= 1
 mccormick3[71]: x[71] + u[71] - r[71] <= 1
 mccormick3[72]: x[72] + u[72] - r[72] <= 1
 mccormick3[73]: x[73] + u[73] - r[73] <= 1
 mccormick3[74]: x[74] + u[74] - r[74] <= 1
 mccormick3[75]: x[75] + u[75] - r[75] <= 1
 mccormick3[76]: x[76] + u[76] - r[76] <= 1
 mccormick3[77]: x[77] + u[77] - r[77] <= 1
 mccormick3[78]: x[78] + u[78] - r[78] <= 1
 mccormick3[79]: x[79] + u[79] - r[79] <= 1
 mccormick3[80]: x[80] + u[80] - r[80] <= 1
 mccormick3[81]: x[81] + u[81] - r[81] <= 1
 mccormick3[82]: x[82] + u[82] - r[82] <= 1
 mccormick3[83]: x[83] + u[83] - r[83] <= 1
 mccormick3[84]: x[84] + u[84] - r[84] <= 1
 mccormick3[85]: x[85] + u[85] - r[85] <= 1
 mccormick3[86]: x[86] + u[86] - r[86] <= 1
 mccormick3[87]: x[87] + u[87] - r[87] <= 1
 mccormick3[88]: x[88] + u[88] - r[88] <= 1
 mccormick3[89]: x[89] + u[89] - r[89] <= 1
 mccormick3[90]: x[90] + u[90] - r[90] <= 1
 mccormick3[91]: x[91] + u[91] - r[91] <= 1
 mccormick3[92]: x[92] + u[92] - r[92] <= 1
 mccormick3[93]: x[93] + u[93] - r[93] <= 1
 mccormick3[94]: x[94] + u[94] - r[94] <= 1
 mccormick3[95]: x[95] + u[95] - r[95] <= 1
 mccormick3[96]: x[96] + u[96] - r[96] <= 1
 mccormick3[97]: x[97] + u[97] - r[97] <= 1
 mccormick3[98]: x[98] + u[98] - r[98] <= 1
 mccormick3[99]: x[99] + u[99] - r[99] <= 1
 mccormick3[100]: x[100] + u[100] - r[100] <= 1
 mccormick3[101]: x[101] + u[101] - r[101] <= 1
 mccormick3[102]: x[102] + u[102] - r[102] <= 1
 mccormick3[103]: x[103] + u[103] - r[103] <= 1
 mccormick3[104]: x[104] + u[104] - r[104] <= 1
 mccormick3[105]: x[105] + u[105] - r[105] <= 1
 mccormick3[106]: x[106] + u[106] - r[106] <= 1
 mccormick3[107]: x[107] + u[107] - r[107] <= 1
 mccormick3[108]: x[108] + u[108] - r[108] <= 1
 mccormick3[109]: x[109] + u[109] - r[109] <= 1
 mccormick3[110]: x[110] + u[110] - r[110] <= 1
 mccormick3[111]: x[111] + u[111] - r[111] <= 1
 mccormick3[112]: x[112] + u[112] - r[112] <= 1
 mccormick3[113]: x[113] + u[113] - r[113] <= 1
 mccormick3[114]: x[114] + u[114] - r[114] <= 1
 mccormick3[115]: x[115] + u[115] - r[115] <= 1
 mccormick3[116]: x[116] + u[116] - r[116] <= 1
 mccormick3[117]: x[117] + u[117] - r[117] <= 1
 mccormick3[118]: x[118] + u[118] - r[118] <= 1
 mccormick3[119]: x[119] + u[119] - r[119] <= 1
 mccormick3[120]: x[120] + u[120] - r[120] <= 1
 mccormick3[121]: x[121] + u[121] - r[121] <= 1
 mccormick3[122]: x[122] + u[122] - r[122] <= 1
 mccormick3[123]: x[123] + u[123] - r[123] <= 1
 mccormick3[124]: x[124] + u[124] - r[124] <= 1
 mccormick3[125]: x[125] + u[125] - r[125] <= 1
 mccormick3[126]: x[126] + u[126] - r[126] <= 1
 mccormick3[127]: x[127] + u[127] - r[127] <= 1
 mccormick3[128]: x[128] + u[128] - r[128] <= 1
 mccormick3[129]: x[129] + u[129] - r[129] <= 1
 mccormick3[130]: x[130] + u[130] - r[130] <= 1
 mccormick3[131]: x[131] + u[131] - r[131] <= 1
 mccormick3[132]: x[132] + u[132] - r[132] <= 1
 mccormick3[133]: x[133] + u[133] - r[133] <= 1
 mccormick3[134]: x[134] + u[134] - r[134] <= 1
 mccormick3[135]: x[135] + u[135] - r[135] <= 1
 mccormick3[136]: x[136] + u[136] - r[136] <= 1
 mccormick3[137]: x[137] + u[137] - r[137] <= 1
 mccormick3[138]: x[138] + u[138] - r[138] <= 1
 mccormick3[139]: x[139] + u[139] - r[139] <= 1
Bounds
Binaries
 x[0] x[1] x[2] x[3] x[4] x[5] x[6] x[7] x[8] x[9] x[10] x[11] x[12] x[13]
 x[14] x[15] x[16] x[17] x[18] x[19] x[20] x[21] x[22] x[23] x[24] x[25]
 x[26] x[27] x[28] x[29] x[30] x[31] x[32] x[33] x[34] x[35] x[36] x[37]
 x[38] x[39] x[40] x[41] x[42] x[43] x[44] x[45] x[46] x[47] x[48] x[49]
 x[50] x[51] x[52] x[53] x[54] x[55] x[56] x[57] x[58] x[59] x[60] x[61]
 x[62] x[63] x[64] x[65] x[66] x[67] x[68] x[69] x[70] x[71] x[72] x[73]
 x[74] x[75] x[76] x[77] x[78] x[79] x[80] x[81] x[82] x[83] x[84] x[85]
 x[86] x[87] x[88] x[89] x[90] x[91] x[92] x[93] x[94] x[95] x[96] x[97]
 x[98] x[99] x[100] x[101] x[102] x[103] x[104] x[105] x[106] x[107] x[108]
 x[109] x[110] x[111] x[112] x[113] x[114] x[115] x[116] x[117] x[118]
 x[119] x[120] x[121] x[122] x[123] x[124] x[125] x[126] x[127] x[128]
 x[129] x[130] x[131] x[132] x[133] x[134] x[135] x[136] x[137] x[138]
 x[139] u[0] u[1] u[2] u[3] u[4] u[5] u[6] u[7] u[8] u[9] u[10] u[11] u[12]
 u[13] u[14] u[15] u[16] u[17] u[18] u[19] u[20] u[21] u[22] u[23] u[24]
 u[25] u[26] u[27] u[28] u[29] u[30] u[31] u[32] u[33] u[34] u[35] u[36]
 u[37] u[38] u[39] u[40] u[41] u[42] u[43] u[44] u[45] u[46] u[47] u[48]
 u[49] u[50] u[51] u[52] u[53] u[54] u[55] u[56] u[57] u[58] u[59] u[60]
 u[61] u[62] u[63] u[64] u[65] u[66] u[67] u[68] u[69] u[70] u[71] u[72]
 u[73] u[74] u[75] u[76] u[77] u[78] u[79] u[80] u[81] u[82] u[83] u[84]
 u[85] u[86] u[87] u[88] u[89] u[90] u[91] u[92] u[93] u[94] u[95] u[96]
 u[97] u[98] u[99] u[100] u[101] u[102] u[103] u[104] u[105] u[106] u[107]
 u[108] u[109] u[110] u[111] u[112] u[113] u[114] u[115] u[116] u[117]
 u[118] u[119] u[120] u[121] u[122] u[123] u[124] u[125] u[126] u[127]
 u[128] u[129] u[130] u[131] u[132] u[133] u[134] u[135] u[136] u[137]
 u[138] u[139] r[0] r[1] r[2] r[3] r[4] r[5] r[6] r[7] r[8] r[9] r[10]
 r[11] r[12] r[13] r[14] r[15] r[16] r[17] r[18] r[19] r[20] r[21] r[22]
 r[23] r[24] r[25] r[26] r[27] r[28] r[29] r[30] r[31] r[32] r[33] r[34]
 r[35] r[36] r[37] r[38] r[39] r[40] r[41] r[42] r[43] r[44] r[45] r[46]
 r[47] r[48] r[49] r[50] r[51] r[52] r[53] r[54] r[55] r[56] r[57] r[58]
 r[59] r[60] r[61] r[62] r[63] r[64] r[65] r[66] r[67] r[68] r[69] r[70]
 r[71] r[72] r[73] r[74] r[75] r[76] r[77] r[78] r[79] r[80] r[81] r[82]
 r[83] r[84] r[85] r[86] r[87] r[88] r[89] r[90] r[91] r[92] r[93] r[94]
 r[95] r[96] r[97] r[98] r[99] r[100] r[101] r[102] r[103] r[104] r[105]
 r[106] r[107] r[108] r[109] r[110] r[111] r[112] r[113] r[114] r[115]
 r[116] r[117] r[118] r[119] r[120] r[121] r[122] r[123] r[124] r[125]
 r[126] r[127] r[128] r[129] r[130] r[131] r[132] r[133] r[134] r[135]
 r[136] r[137] r[138] r[139]
End
