instances/knapsack/discrete/knapsack_140_19.kp
77794
140
678

52 5.2 30
100 10.0 91
94 9.4 84
87 8.7 44
80 8.0 98
14 1.4 5
21 2.1 98
8 0.8 84
93 9.3 23
78 7.8 15
12 1.2 47
3 0.3 11
100 10.0 7
88 8.8 70
73 7.3 87
9 0.9 36
61 6.1 50
44 4.4 18
89 8.9 55
78 7.8 54
45 4.5 86
68 6.8 27
12 1.2 8
59 5.9 32
77 7.7 97
88 8.8 75
66 6.6 44
64 6.4 20
58 5.8 22
3 0.3 41
10 1.0 57
28 2.8 64
8 0.8 60
25 2.5 19
56 5.6 88
53 5.3 65
8 0.8 33
45 4.5 35
60 6.0 27
91 9.1 72
11 1.1 12
10 1.0 42
70 7.0 30
86 8.6 31
83 8.3 91
35 3.5 91
38 3.8 65
90 9.0 29
87 8.7 89
24 2.4 34
79 7.9 7
16 1.6 47
85 8.5 59
24 2.4 5
17 1.7 92
80 8.0 26
65 6.5 99
95 9.5 88
16 1.6 80
70 7.0 47
21 2.1 52
7 0.7 94
76 7.6 78
27 2.7 62
16 1.6 19
72 7.2 81
17 1.7 69
31 3.1 42
40 4.0 57
90 9.0 30
6 0.6 29
86 8.6 83
86 8.6 57
19 1.9 66
20 2.0 75
33 3.3 22
71 7.1 78
67 6.7 5
45 4.5 92
91 9.1 76
38 3.8 95
22 2.2 58
67 6.7 22
26 2.6 78
34 3.4 57
50 5.0 5
32 3.2 66
16 1.6 71
2 0.2 16
87 8.7 51
29 2.9 74
9 0.9 30
93 9.3 82
72 7.2 65
84 8.4 60
53 5.3 71
17 1.7 93
61 6.1 20
44 4.4 41
96 9.6 33
61 6.1 65
48 4.8 6
10 1.0 27
100 10.0 66
49 4.9 59
50 5.0 23
51 5.1 94
51 5.1 77
71 7.1 26
69 6.9 17
63 6.3 54
87 8.7 70
5 0.5 42
61 6.1 100
21 2.1 22
15 1.5 57
95 9.5 43
41 4.1 61
33 3.3 14
9 0.9 43
96 9.6 58
13 1.3 35
56 5.6 86
23 2.3 75
13 1.3 32
59 5.9 65
60 6.0 21
96 9.6 62
63 6.3 16
87 8.7 13
58 5.8 87
17 1.7 99
79 7.9 24
100 10.0 67
5 0.5 58
6 0.6 24
73 7.3 93
51 5.1 78
98 9.8 27
36 3.6 98

29666
701

[1.1740114673745385 2.2151196999977456 0.31560097529747577 1.341236894707485 1.5039176526708085 2.4904720249686756 4.79968169959471 0.45346494848940827 3.1520570126688905 0.8651299612037902 4.787536652299294 0.13604607931657542 2.911669111051266 4.394307972359399 4.756221484853163 3.8545747257313967 4.231088176620785 2.1752798234898947 0.3268881306583969 3.3215050883358015 4.3046159558538815 4.97774263944395 4.608887800871881 3.040854692940848 1.056314323782642 2.7275315455157596 4.440413665159522 4.532503709332785 3.697835327175848 3.8508585634319776 1.588424240479026 4.167399522561795 4.477220439500624 1.3567019985107258 3.852008827698503 4.9707237032858504 3.73106384721783 1.6214778524755395 2.255897587883367 3.463941208965182 0.42323684981413395 4.46735296849295 1.8801005804708122 2.7378934262011954 3.7203784055076707 3.8174824549609148 2.934133815580428 4.558433121767394 3.251505004305357 4.443420730034774 1.1223068952401276 1.2575497958804687 1.0475359923583831 2.4741095650784892 0.023407823447682313 0.5401194165939245 2.860020838289627 0.007033141347391085 3.375910253964976 3.1910568965009825 3.512430115414594 3.7225966220616793 1.4240944368171278 2.0629608341778662 1.4746935936139118 3.704927492763241 2.0611160540779663 1.559371492179044 0.3213798103682851 4.152661010003461 2.3494773738739685 0.24943809469894293 0.49755954320227236 4.085179386157155 2.631152715896191 4.276611999892875 0.005203253286748315 4.770283292313602 0.601724085223803 3.7759620537208605 3.5052921349821435 4.228116816195685 2.3359268901861117 1.4488692580833284 4.205606862713546 4.9543061249971245 5.002614076159409 3.6941965557996546 2.518270888561472 0.8440390938420322 0.4968003917137616 4.744267245278723 3.618187231512848 3.34263859867506 0.455790978868098 1.9095243383796265 3.3396072834204045 2.7832625240085855 1.8533554625251496 1.5928678192859247 3.88696779911063 0.7345184851460085 4.322557553737345 1.1484342503863765 1.618556205788433 3.593601411979529 1.5956734695492152 0.2058946637548614 4.5006416926660355 0.4511080105323096 4.766982256039144 2.1507090092701984 4.285175165128977 2.7160036328933903 4.439303938377803 2.437863874488521 2.3790054877476523 2.6107404162693397 2.412680048518219 3.5863020402126997 1.2003788691409418 1.5667077116692394 3.777949423819132 0.8930061611697311 4.422656917613916 4.676427965673077 4.733517407527976 1.1157248405647886 4.9194257713883 3.3757861666592333 0.9464077713614338 3.7689344224417747 1.2162291682851465 3.153661316391223 3.04799011651037 0.10477046700662468 3.52389101900411 3.6741438996790916 1.87408500490758 2.9827348585128104]

[84 16 66 83 52 46 89 68 9 94 88 79 68 84 1 97 25 20 17 78 73 24 20 31 9 20 30 60 54 95 18 88 100 77 64 37 60 65 24 23 31 74 10 34 43 79 10 42 59 88 43 4 17 72 65 88 69 15 100 38 1 51 56 35 16 68 85 59 44 58 98 38 22 11 72 9 59 91 77 47 74 2 19 2 74 62 8 48 62 59 77 41 81 24 16 69 73 53 36 72 73 64 86 24 5 62 35 51 23 17 55 67 85 49 17 99 7 77 69 81 60 89 60 83 89 79 40 4 55 39 46 97 43 92 57 62 17 99 94 52]
